
Gurobi 10.0.0 (mac64[arm]) logging started Mon Apr 10 15:31:21 2023

Set parameter LogFile to value "LinearBusRouting_KO.log"
Set parameter MIPGap to value 0
Set parameter MIPGapAbs to value 0

Gurobi 10.0.0 (mac64[arm]) logging started Mon Apr 10 15:31:50 2023

Set parameter LogFile to value "LinearBusRouting_KO.log"
Set parameter MIPGap to value 0
Set parameter MIPGapAbs to value 0

Gurobi 10.0.0 (mac64[arm]) logging started Mon Apr 10 15:32:17 2023

Set parameter LogFile to value "LinearBusRouting_KO.log"
Set parameter MIPGap to value 0
Set parameter MIPGapAbs to value 0
